p cnf 58 203
-5 -3 0
-5 -4 0
3 4 5 0
-2 5 -6 0
2 -5 -6 0
-2 -5 6 0
2 5 6 0
6 -2 -7 0
-6 2 -7 0
6 2 7 0
-6 -2 7 0
-8 1 0
-8 -7 0
-1 7 8 0
10 -3 0
10 -9 0
3 9 -10 0
12 -6 0
12 11 0
6 -11 -12 0
-13 10 0
-13 12 0
-10 -12 13 0
14 -8 0
14 -13 0
8 13 -14 0
-15 4 0
-15 6 0
-4 -6 15 0
-17 16 0
-17 -1 0
-16 1 17 0
-18 15 0
-18 17 0
-15 -17 18 0
20 -9 0
20 -4 0
9 4 -20 0
21 -19 0
21 20 0
19 -20 -21 0
21 7 -22 0
-21 -7 -22 0
21 -7 22 0
-21 7 22 0
23 -18 0
23 22 0
18 -22 -23 0
24 14 0
24 23 0
-14 -23 -24 0
-15 -21 -25 0
15 21 -25 0
-15 21 25 0
15 -21 25 0
26 9 0
26 9 0
-9 -26 0
27 -26 0
27 1 0
26 -1 -27 0
27 -9 -28 0
-27 9 -28 0
27 9 28 0
-27 -9 28 0
30 28 0
30 -29 0
-28 29 -30 0
31 25 0
31 -30 0
-25 30 -31 0
32 24 0
32 31 0
-24 -31 -32 0
-33 16 0
-33 6 0
-16 -6 33 0
34 -4 0
34 16 0
4 -16 -34 0
33 -34 -35 0
-33 34 -35 0
33 34 35 0
-33 -34 35 0
-2 21 -36 0
2 -21 -36 0
-2 -21 36 0
2 21 36 0
-38 -37 0
-38 -34 0
37 34 38 0
-16 38 -39 0
16 -38 -39 0
-16 -38 39 0
16 38 39 0
40 -36 0
40 39 0
36 -39 -40 0
-41 -35 0
-41 40 0
35 -40 41 0
-42 16 0
-42 20 0
-16 -20 42 0
-43 -33 0
-43 -42 0
33 42 43 0
-44 -21 0
-44 20 0
21 -20 44 0
-45 44 0
-45 33 0
-44 -33 45 0
46 37 0
46 -3 0
-37 3 -46 0
47 -45 0
47 46 0
45 -46 -47 0
-43 -47 -48 0
43 47 -48 0
-43 47 48 0
43 -47 48 0
49 41 0
49 48 0
-41 -48 -49 0
50 21 0
50 42 0
-21 -42 -50 0
-51 -16 0
-51 -5 0
16 5 51 0
52 1 0
52 51 0
-1 -51 -52 0
53 15 0
53 52 0
-15 -52 -53 0
-54 9 0
-54 -11 0
-9 11 54 0
-55 -53 0
-55 54 0
53 -54 55 0
-50 -55 -56 0
50 55 -56 0
-50 55 56 0
50 -55 56 0
57 49 0
57 56 0
-49 -56 -57 0
-32 57 -58 0
32 -57 -58 0
-32 -57 58 0
32 57 58 0
-2 4 0
-27 1 4 31 -5 0
31 37 48 0
3 12 -36 0
6 53 25 0
-41 24 -27 -13 0
-39 16 3 -6 -9 0
-7 -6 -33 -28 -53 20 0
-21 -35 14 0
37 1 -39 56 -13 36 0
34 49 0
-43 21 -40 -52 16 32 0
-28 56 -52 45 0
39 17 6 57 0
-47 46 -32 -15 0
8 4 -37 36 0
-53 -42 -29 0
8 12 -33 -19 -50 -3 0
-6 17 0
-3 -5 -13 0
-52 40 -56 47 0
-58 -48 31 0
54 39 -6 28 -7 0
41 22 -5 2 51 0
24 -25 0
52 44 -20 -43 42 7 0
57 -19 -3 -6 29 0
-1 17 -56 0
27 37 -5 -29 -17 -10 0
22 -49 0
-15 24 52 26 7 0
-48 -18 -54 -6 16 0
15 16 51 6 0
-7 56 -50 51 5 0
-26 -6 -34 -23 -3 0
29 -18 45 44 48 -54 0
3 -20 14 0
-34 57 -45 0
-35 -52 -27 -25 -34 0
-15 -20 -27 19 -4 -22 0
22 -39 -19 -14 -8 -30 0
40 -54 0
22 14 -6 -17 -42 0
7 47 0
-45 -43 0
-38 36 41 -4 0
28 -46 0
58 0
